50
2264

871 232
617 964
61 960
749 589
954 238
365 105
83 413
348 912
260 780
900 566
719 288
357 124
781 482
521 636
348 925
400 472
805 386
891 132
790 917
835 301
255 393
585 638
438 506
72 869
149 352
371 660
982 104
400 264
640 405
382 171
848 754
305 75
491 520
770 776
270 840
464 16
914 984
724 628
376 463
138 218
882 296
272 754
404 494
9 904
518 33
20 14
39 837
240 642
857 914
443 131
